31
30 0 1 2 0 3 1 2 2 4 0 3 5 6 4 7 5 6 3 3 1 8 7 7 9 6 8 9 0 8 5 2 6 10 7 11 4 5 11 8 10 10 9 12 4 13 13 14 15 14 12 16 15 16 11 11 17 12 10 18 19 1 20 21 19 13 18 8 19 17 21 18 15 16 20 22 17 23 24 20 25 25 23 19 22 18 26 27 24 26 27 3 28 27 28 22 29 14 16 29 
